objective value:                             -2451186
t_x47                                               1 	(obj:-1968)
t_x142                                              1 	(obj:-1311)
t_x239                                              1 	(obj:-1928)
t_x251                                              1 	(obj:-5768)
t_x254                                              1 	(obj:-8901)
t_x258                                              1 	(obj:-9985)
t_x261                                              1 	(obj:-6284)
t_x262                                              1 	(obj:-5547)
t_x267                                              1 	(obj:-9315)
t_x269                                              1 	(obj:-5815)
t_x271                                              1 	(obj:-8449)
t_x275                                              1 	(obj:-6538)
t_x278                                              1 	(obj:-9483)
t_x281                                              1 	(obj:-9157)
t_x290                                              1 	(obj:-6076)
t_x293                                              1 	(obj:-6055)
t_x297                                              1 	(obj:-7673)
t_x298                                              1 	(obj:-7964)
t_x301                                              1 	(obj:-7703)
t_x306                                              1 	(obj:-8079)
t_x307                                              1 	(obj:-8423)
t_x311                                              1 	(obj:-9000)
t_x315                                              1 	(obj:-8810)
t_x318                                              1 	(obj:-9821)
t_x320                                              1 	(obj:-9581)
t_x322                                              1 	(obj:-8402)
t_x325                                              1 	(obj:-7574)
t_x330                                              1 	(obj:-7868)
t_x333                                              1 	(obj:-9974)
t_x334                                              1 	(obj:-9437)
t_x337                                              1 	(obj:-9252)
t_x340                                              1 	(obj:-7316)
t_x344                                              1 	(obj:-9803)
t_x346                                              1 	(obj:-5657)
t_x351                                              1 	(obj:-7563)
t_x354                                              1 	(obj:-9403)
t_x355                                              1 	(obj:-6726)
t_x358                                              1 	(obj:-3587)
t_x362                                              1 	(obj:-5167)
t_x365                                              1 	(obj:-8586)
t_x368                                              1 	(obj:-8977)
t_x371                                              1 	(obj:-4771)
t_x373                                              1 	(obj:-7070)
t_x377                                              1 	(obj:-4811)
t_x380                                              1 	(obj:-8166)
t_x382                                              1 	(obj:-6411)
t_x387                                              1 	(obj:-8314)
t_x388                                              1 	(obj:-9859)
t_x393                                              1 	(obj:-9336)
t_x396                                              1 	(obj:-9990)
t_x398                                              1 	(obj:-2854)
t_x401                                              1 	(obj:-6260)
t_x403                                              1 	(obj:-9652)
t_x406                                              1 	(obj:-8164)
t_x411                                              1 	(obj:-8829)
t_x414                                              1 	(obj:-6654)
t_x417                                              1 	(obj:-7739)
t_x420                                              1 	(obj:-9325)
t_x421                                              1 	(obj:-9183)
t_x426                                              1 	(obj:-7650)
t_x428                                              1 	(obj:-8746)
t_x431                                              1 	(obj:-5640)
t_x435                                              1 	(obj:-8501)
t_x437                                              1 	(obj:-8686)
t_x442                                              1 	(obj:-5979)
t_x445                                              1 	(obj:-7609)
t_x448                                              1 	(obj:-1558)
t_x452                                              1 	(obj:-8982)
t_x455                                              1 	(obj:-6512)
t_x457                                              1 	(obj:-8823)
t_x460                                              1 	(obj:-7637)
t_x464                                              1 	(obj:-9707)
t_x468                                              1 	(obj:-4526)
t_x469                                              1 	(obj:-9293)
t_x474                                              1 	(obj:-5043)
t_x475                                              1 	(obj:-9551)
t_x480                                              1 	(obj:-6457)
t_x481                                              1 	(obj:-8773)
t_x484                                              1 	(obj:-8975)
t_x489                                              1 	(obj:-9420)
t_x491                                              1 	(obj:-9874)
t_x494                                              1 	(obj:-7815)
t_x497                                              1 	(obj:-8101)
t_x500                                              1 	(obj:-6353)
t_x502                                              1 	(obj:-9152)
t_x507                                              1 	(obj:-7010)
t_x510                                              1 	(obj:-4067)
t_x512                                              1 	(obj:-6010)
t_x523                                              1 	(obj:-1076)
t_x537                                              1 	(obj:-4712)
t_x538                                              1 	(obj:-2358)
t_x553                                              1 	(obj:-4331)
t_x564                                              1 	(obj:-3724)
t_x566                                              1 	(obj:-4562)
t_x570                                              1 	(obj:-2162)
t_x572                                              1 	(obj:-2492)
t_x575                                              1 	(obj:-4500)
t_x577                                              1 	(obj:-4178)
t_x581                                              1 	(obj:-3877)
t_x583                                              1 	(obj:-4310)
t_x589                                              1 	(obj:-3305)
t_x592                                              1 	(obj:-4083)
t_x597                                              1 	(obj:-4349)
t_x598                                              1 	(obj:-4487)
t_x602                                              1 	(obj:-3278)
t_x608                                              1 	(obj:-3145)
t_x610                                              1 	(obj:-4980)
t_x614                                              1 	(obj:-3741)
t_x617                                              1 	(obj:-4814)
t_x619                                              1 	(obj:-3045)
t_x622                                              1 	(obj:-3389)
t_x627                                              1 	(obj:-3611)
t_x633                                              1 	(obj:-1296)
t_x635                                              1 	(obj:-3992)
t_x645                                              1 	(obj:-3751)
t_x648                                              1 	(obj:-3777)
t_x649                                              1 	(obj:-4639)
t_x659                                              1 	(obj:-2329)
t_x662                                              1 	(obj:-4724)
t_x664                                              1 	(obj:-4853)
t_x669                                              1 	(obj:-2401)
t_x671                                              1 	(obj:-3059)
t_x681                                              1 	(obj:-4547)
t_x689                                              1 	(obj:-4413)
t_x692                                              1 	(obj:-1895)
t_x696                                              1 	(obj:-3495)
t_x699                                              1 	(obj:-4312)
t_x700                                              1 	(obj:-4956)
t_x704                                              1 	(obj:-2735)
t_x714                                              1 	(obj:-3920)
t_x722                                              1 	(obj:-4319)
t_x724                                              1 	(obj:-1121)
t_x731                                              1 	(obj:-4010)
t_x741                                              1 	(obj:-3902)
t_x743                                              1 	(obj:-2133)
t_x747                                              1 	(obj:-4506)
t_x752                                              1 	(obj:-4084)
t_x756                                              1 	(obj:-1864)
t_x758                                              1 	(obj:-3754)
t_x761                                              1 	(obj:-2871)
t_x766                                              1 	(obj:-4177)
t_x771                                              1 	(obj:-2133)
t_x776                                              1 	(obj:-3433)
t_x778                                              1 	(obj:-3114)
t_x782                                              1 	(obj:-4029)
t_x786                                              1 	(obj:-4362)
t_x793                                              1 	(obj:-4440)
t_x797                                              1 	(obj:-2095)
t_x802                                              1 	(obj:-4486)
t_x805                                              1 	(obj:-4881)
t_x813                                              1 	(obj:-4621)
t_x822                                              1 	(obj:-4210)
t_x827                                              1 	(obj:-4397)
t_x835                                              1 	(obj:-3930)
t_x839                                              1 	(obj:-4393)
t_x841                                              1 	(obj:-4776)
t_x845                                              1 	(obj:-4927)
t_x873                                              1 	(obj:-3067)
t_x882                                              1 	(obj:-4146)
t_x888                                              1 	(obj:-3367)
t_x889                                              1 	(obj:-3416)
t_x900                                              1 	(obj:-3740)
t_x905                                              1 	(obj:-3549)
t_x907                                              1 	(obj:-3481)
t_x918                                              1 	(obj:-1360)
t_x920                                              1 	(obj:-4312)
t_x932                                              1 	(obj:-4305)
t_x936                                              1 	(obj:-1899)
t_x939                                              1 	(obj:-4451)
t_x946                                              1 	(obj:-4412)
t_x949                                              1 	(obj:-4478)
t_x954                                              1 	(obj:-3078)
t_x959                                              1 	(obj:-3219)
t_x963                                              1 	(obj:-3828)
t_x964                                              1 	(obj:-4356)
t_x971                                              1 	(obj:-1904)
t_x977                                              1 	(obj:-4786)
t_x980                                              1 	(obj:-4756)
t_x982                                              1 	(obj:-4066)
t_x998                                              1 	(obj:-1347)
t_x1001                                             1 	(obj:-4708)
t_x1005                                             1 	(obj:-4780)
t_x1006                                             1 	(obj:-4773)
t_x1010                                             1 	(obj:-3123)
t_x1014                                             1 	(obj:-3702)
t_x1015                                             1 	(obj:-4628)
t_x1025                                             1 	(obj:-3994)
t_x1027                                             1 	(obj:-3835)
t_x1035                                             1 	(obj:-2361)
t_x1040                                             1 	(obj:-4949)
t_x1056                                             1 	(obj:-4272)
t_x1062                                             1 	(obj:-4542)
t_x1070                                             1 	(obj:-4137)
t_x1077                                             1 	(obj:-4154)
t_x1079                                             1 	(obj:-4893)
t_x1085                                             1 	(obj:-4053)
t_x1090                                             1 	(obj:-3612)
t_x1100                                             1 	(obj:-4202)
t_x1102                                             1 	(obj:-4375)
t_x1105                                             1 	(obj:-1508)
t_x1110                                             1 	(obj:-2707)
t_x1112                                             1 	(obj:-2366)
t_x1125                                             1 	(obj:-2888)
t_x1128                                             1 	(obj:-2765)
t_x1130                                             1 	(obj:-1654)
t_x1134                                             1 	(obj:-2660)
t_x1139                                             1 	(obj:-4801)
t_x1141                                             1 	(obj:-4906)
t_x1146                                             1 	(obj:-4059)
t_x1149                                             1 	(obj:-4507)
t_x1150                                             1 	(obj:-4077)
t_x1160                                             1 	(obj:-4262)
t_x1167                                             1 	(obj:-3890)
t_x1168                                             1 	(obj:-4885)
t_x1172                                             1 	(obj:-4593)
t_x1181                                             1 	(obj:-4723)
t_x1188                                             1 	(obj:-1963)
t_x1195                                             1 	(obj:-4741)
t_x1198                                             1 	(obj:-4360)
t_x1206                                             1 	(obj:-4926)
t_x1225                                             1 	(obj:-4424)
t_x1229                                             1 	(obj:-3176)
t_x1247                                             1 	(obj:-3803)
t_x1256                                             1 	(obj:-4419)
t_x1262                                             1 	(obj:-4506)
t_x1270                                             1 	(obj:-2840)
t_x1276                                             1 	(obj:-2763)
t_x1287                                             1 	(obj:-4402)
t_x1290                                             1 	(obj:-4617)
t_x1292                                             1 	(obj:-2568)
t_x1312                                             1 	(obj:-864)
t_x1391                                             1 	(obj:-878)
t_x1407                                             1 	(obj:-607)
t_x1411                                             1 	(obj:-260)
t_x1414                                             1 	(obj:-1702)
t_x1419                                             1 	(obj:-1860)
t_x1428                                             1 	(obj:-1065)
t_x1436                                             1 	(obj:-820)
t_x1441                                             1 	(obj:-1078)
t_x1447                                             1 	(obj:-1800)
t_x1454                                             1 	(obj:-783)
t_x1456                                             1 	(obj:-1426)
t_x1469                                             1 	(obj:-1919)
t_x1478                                             1 	(obj:-1835)
t_x1487                                             1 	(obj:-1936)
t_x1493                                             1 	(obj:-469)
t_x1503                                             1 	(obj:-831)
t_x1509                                             1 	(obj:-644)
t_x1510                                             1 	(obj:-906)
t_x1526                                             1 	(obj:-706)
t_x1542                                             1 	(obj:-997)
t_x1552                                             1 	(obj:-551)
t_x1560                                             1 	(obj:-864)
t_x1592                                             1 	(obj:-606)
t_x1644                                             1 	(obj:-993)
t_x1658                                             1 	(obj:-992)
t_x1661                                             1 	(obj:-802)
t_x1663                                             1 	(obj:-823)
t_x1678                                             1 	(obj:-961)
t_x1711                                             1 	(obj:-728)
t_x1720                                             1 	(obj:-695)
t_x1753                                             1 	(obj:-747)
t_x1841                                             1 	(obj:-958)
t_x1863                                             1 	(obj:-732)
t_x1871                                             1 	(obj:-992)
t_x1892                                             1 	(obj:-982)
t_x1937                                             1 	(obj:-723)
t_x1987                                             1 	(obj:-838)
t_x2088                                             1 	(obj:-895)
t_x2179                                             1 	(obj:-533)
t_x2204                                             1 	(obj:-868)
t_x2213                                             1 	(obj:-386)
t_x2312                                             1 	(obj:-817)
t_x2504                                             1 	(obj:-1693)
t_x2506                                             1 	(obj:-1532)
t_x2531                                             1 	(obj:-1674)
t_x2533                                             1 	(obj:-1993)
t_x2558                                             1 	(obj:-1331)
t_x2562                                             1 	(obj:-1210)
t_x2565                                             1 	(obj:-1761)
t_x2568                                             1 	(obj:-1915)
t_x2572                                             1 	(obj:-1656)
t_x2579                                             1 	(obj:-1723)
t_x2582                                             1 	(obj:-1629)
t_x2589                                             1 	(obj:-1815)
t_x2592                                             1 	(obj:-1934)
t_x2595                                             1 	(obj:-1353)
t_x2596                                             1 	(obj:-1544)
t_x2599                                             1 	(obj:-1079)
t_x2604                                             1 	(obj:-765)
t_x2606                                             1 	(obj:-1630)
t_x2617                                             1 	(obj:-1884)
t_x2621                                             1 	(obj:-1350)
t_x2625                                             1 	(obj:-1839)
t_x2631                                             1 	(obj:-1044)
t_x2638                                             1 	(obj:-1256)
t_x2644                                             1 	(obj:-1816)
t_x2648                                             1 	(obj:-1253)
t_x2655                                             1 	(obj:-1004)
t_x2657                                             1 	(obj:-1819)
t_x2682                                             1 	(obj:-1451)
t_x2690                                             1 	(obj:-1043)
t_x2700                                             1 	(obj:-1628)
t_x2704                                             1 	(obj:-1586)
t_x2762                                             1 	(obj:-561)
t_x2765                                             1 	(obj:-666)
t_x2868                                             1 	(obj:-93)
t_x2872                                             1 	(obj:-877)
t_x2880                                             1 	(obj:-669)
t_x2890                                             1 	(obj:-992)
t_x2937                                             1 	(obj:-599)
t_x2972                                             1 	(obj:-835)
t_x3025                                             1 	(obj:-921)
t_x3077                                             1 	(obj:-626)
t_x3095                                             1 	(obj:-772)
t_x3120                                             1 	(obj:-398)
t_x3379                                             1 	(obj:-535)
t_x3436                                             1 	(obj:-789)
t_x3439                                             1 	(obj:-85)
t_x3447                                             1 	(obj:-567)
t_x3477                                             1 	(obj:-644)
t_x3571                                             1 	(obj:-702)
t_x3606                                             1 	(obj:-839)
t_x3647                                             1 	(obj:-403)
t_x3703                                             1 	(obj:-599)
t_x3726                                             1 	(obj:-852)
t_x3752                                             1 	(obj:-807)
t_x3756                                             1 	(obj:-501)
t_x3759                                             1 	(obj:-494)
t_x3761                                             1 	(obj:-853)
t_x3765                                             1 	(obj:-315)
t_x3766                                             1 	(obj:-236)
t_x3771                                             1 	(obj:-103)
t_x3774                                             1 	(obj:-743)
t_x3777                                             1 	(obj:-553)
t_x3780                                             1 	(obj:-512)
t_x3783                                             1 	(obj:-163)
t_x3785                                             1 	(obj:-200)
t_x3789                                             1 	(obj:-123)
t_x3792                                             1 	(obj:-288)
t_x3793                                             1 	(obj:-259)
t_x3797                                             1 	(obj:-845)
t_x3800                                             1 	(obj:-802)
t_x3804                                             1 	(obj:-603)
t_x3805                                             1 	(obj:-681)
t_x3808                                             1 	(obj:-626)
t_x3812                                             1 	(obj:-606)
t_x3815                                             1 	(obj:-885)
t_x3817                                             1 	(obj:-126)
t_x3822                                             1 	(obj:-324)
t_x3824                                             1 	(obj:-459)
t_x3827                                             1 	(obj:-774)
t_x3831                                             1 	(obj:-820)
t_x3832                                             1 	(obj:-257)
t_x3837                                             1 	(obj:-445)
t_x3839                                             1 	(obj:-568)
t_x3841                                             1 	(obj:-570)
t_x3845                                             1 	(obj:-556)
t_x3848                                             1 	(obj:-581)
t_x3852                                             1 	(obj:-502)
t_x3853                                             1 	(obj:-710)
t_x3856                                             1 	(obj:-816)
t_x3860                                             1 	(obj:-816)
t_x3864                                             1 	(obj:-605)
t_x3865                                             1 	(obj:-630)
t_x3868                                             1 	(obj:-512)
t_x3896                                             1 	(obj:-470)
t_x3922                                             1 	(obj:-800)
t_x3949                                             1 	(obj:-9181)
t_x3961                                             1 	(obj:-528)
t_x3971                                             1 	(obj:-895)
t_x3989                                             1 	(obj:-520)
t_x4027                                             1 	(obj:-91104)
t_x4033                                             1 	(obj:-69)
t_x4036                                             1 	(obj:-564)
t_x4037                                             1 	(obj:-1560)
t_x4039                                             1 	(obj:-1361)
t_x4042                                             1 	(obj:-1912)
t_x4043                                             1 	(obj:-1629)
t_x4046                                             1 	(obj:-320)
t_x4047                                             1 	(obj:-539)
t_x4049                                             1 	(obj:-1421)
t_x4051                                             1 	(obj:-370)
t_x4054                                             1 	(obj:-542)
t_x4056                                             1 	(obj:-256)
t_x4058                                             1 	(obj:-1657)
t_x4059                                             1 	(obj:-526)
t_x4061                                             1 	(obj:-196)
t_x4064                                             1 	(obj:-261)
t_x4066                                             1 	(obj:-1328)
t_x4068                                             1 	(obj:-1879)
t_x4070                                             1 	(obj:-772)
t_x4072                                             1 	(obj:-384)
t_x4073                                             1 	(obj:-1064)
t_x4076                                             1 	(obj:-26)
t_x4077                                             1 	(obj:-1205)
t_x4080                                             1 	(obj:-632)
t_x4082                                             1 	(obj:-1115)
t_x4083                                             1 	(obj:-1493)
t_x4086                                             1 	(obj:-619)
t_x4088                                             1 	(obj:-1525)
t_x4089                                             1 	(obj:-468)
t_x4091                                             1 	(obj:-1191)
t_x4093                                             1 	(obj:-761)
t_x4095                                             1 	(obj:-1865)
t_x4098                                             1 	(obj:-1295)
t_x4100                                             1 	(obj:-303)
t_x4101                                             1 	(obj:-689)
t_x4103                                             1 	(obj:-1154)
t_x4105                                             1 	(obj:-207)
t_x4108                                             1 	(obj:-808)
t_x4110                                             1 	(obj:-1218)
t_x4112                                             1 	(obj:-831)
t_x4114                                             1 	(obj:-1577)
t_x4115                                             1 	(obj:-715)
t_x4208                                             1 	(obj:-13806)
t_x4210                                             1 	(obj:-11577)
t_x4214                                             1 	(obj:-11413)
t_x4217                                             1 	(obj:-17803)
t_x4221                                             1 	(obj:-19005)
t_x4228                                             1 	(obj:-18307)
t_x4234                                             1 	(obj:-6133)
t_x4239                                             1 	(obj:-15975)
t_x4241                                             1 	(obj:-2229)
t_x4249                                             1 	(obj:-15731)
t_x4254                                             1 	(obj:-17436)
t_x4260                                             1 	(obj:-15111)
t_x4261                                             1 	(obj:-15340)
t_x4268                                             1 	(obj:-7519)
t_x4269                                             1 	(obj:-18877)
t_x4274                                             1 	(obj:-17687)
t_x4281                                             1 	(obj:-12628)
t_x4285                                             1 	(obj:-18042)
t_x4291                                             1 	(obj:-13277)
t_x4293                                             1 	(obj:-19462)
t_x4296                                             1 	(obj:-7334)
t_x4302                                             1 	(obj:-16185)
t_x4304                                             1 	(obj:-15888)
t_x4312                                             1 	(obj:-10810)
t_x4320                                             1 	(obj:-7510)
t_x4327                                             1 	(obj:-11595)
t_x4330                                             1 	(obj:-9199)
t_x4333                                             1 	(obj:-15240)
t_x4336                                             1 	(obj:-18473)
t_x4337                                             1 	(obj:-10635)
t_x4345                                             1 	(obj:-14730)
t_x4350                                             1 	(obj:-9658)
t_x4352                                             1 	(obj:-4775)
t_x4356                                             1 	(obj:-16873)
t_x4364                                             1 	(obj:-13937)
t_x4372                                             1 	(obj:-18553)
t_x4373                                             1 	(obj:-13937)
t_x4379                                             1 	(obj:-13929)
t_x4389                                             1 	(obj:-19880)
t_x4402                                             1 	(obj:-8783)
t_x4410                                             1 	(obj:-12751)
t_x4414                                             1 	(obj:-11370)
t_x4418                                             1 	(obj:-19977)
t_x4421                                             1 	(obj:-18164)
t_x4432                                             1 	(obj:-13097)
t_x4436                                             1 	(obj:-11206)
t_x4442                                             1 	(obj:-15324)
t_x4452                                             1 	(obj:-8743)
t_x4459                                             1 	(obj:-2657)
t_x4464                                             1 	(obj:-17629)
t_x4469                                             1 	(obj:-14645)
t_x4475                                             1 	(obj:-5599)
t_x4479                                             1 	(obj:-13575)
t_x4483                                             1 	(obj:-14260)
t_x4484                                             1 	(obj:-19103)
t_x4498                                             1 	(obj:-18063)
t_x4500                                             1 	(obj:-18364)
t_x4523                                             1 	(obj:-4545)
t_x4615                                             1 	(obj:-3429)
t_x4627                                             1 	(obj:-3236)
t_x4646                                             1 	(obj:-2343)
t_x4649                                             1 	(obj:-4971)
t_x4752                                             1 	(obj:-403)
t_x4756                                             1 	(obj:-1998)
t_x4759                                             1 	(obj:-2034)
t_x4760                                             1 	(obj:-2859)
t_x4764                                             1 	(obj:-308)
t_x4841                                             1 	(obj:-8026)
t_x4847                                             1 	(obj:-9887)
t_x4860                                             1 	(obj:-8200)
t_x4866                                             1 	(obj:-4907)
t_x4884                                             1 	(obj:-5252)
t_x4944                                             1 	(obj:-7041)
t_x4971                                             1 	(obj:-5569)
t_x5031                                             1 	(obj:-5282)
t_x5051                                             1 	(obj:-6396)
t_x5085                                             1 	(obj:-8300)
t_x5125                                             1 	(obj:-7198)
t_x5182                                             1 	(obj:-7655)
t_x5225                                             1 	(obj:-5497)
t_x5237                                             1 	(obj:-8701)
t_x5239                                             1 	(obj:-5197)
t_x5329                                             1 	(obj:-8162)
t_x5363                                             1 	(obj:-8609)
t_x5376                                             1 	(obj:-8822)
t_x5379                                             1 	(obj:-7909)
t_x5435                                             1 	(obj:-8279)
t_x5479                                             1 	(obj:-4751)
t_x5484                                             1 	(obj:-6394)
t_x5563                                             1 	(obj:-7935)
t_x5582                                             1 	(obj:-7011)
t_x5587                                             1 	(obj:-6364)
t_x5592                                             1 	(obj:-8142)
t_x5645                                             1 	(obj:-4881)
t_x5685                                             1 	(obj:-1194)
